p cnf 330 8414
c 'COVERED'1
1 2  0
c 'COVERED'2
1 3 4 5 29  0
c 'COVERED'3
1 3 6 7 8 32  0
c 'COVERED'4
3 6 9 10 11 36  0
c 'COVERED'5
6 9 12 13 14 40  0
c 'COVERED'6
9 12 15 16 17 44  0
c 'COVERED'7
12 15 18 19 20 48  0
c 'COVERED'8
15 18 21 22 52  0
c 'COVERED'9
18 23 24 56  0
c 'COVERED'11
25 26 63  0
c 'COVERED'12
27 28 67  0
c 'COVERED'14
2 4 29 30 31  0
c 'COVERED'15
1 2 4 5 7 29 30 32 33 34 35 74  0
c 'COVERED'16
3 5 7 8 10 29 30 32 33 36 37 38 39 77  0
c 'COVERED'17
6 8 10 11 13 32 33 36 37 40 41 42 43 81  0
c 'COVERED'18
9 11 13 14 16 36 37 40 41 44 45 46 47 85  0
c 'COVERED'19
12 14 16 17 19 40 41 44 45 48 49 50 51 89  0
c 'COVERED'20
15 17 19 20 21 44 45 48 49 52 53 54 55 93  0
c 'COVERED'21
18 20 21 22 23 48 49 52 53 56 57 58 59 97  0
c 'COVERED'22
22 23 24 52 53 56 57 60 61 62 101  0
c 'COVERED'23
24 25 56 57 60 63 64 65 66 105  0
c 'COVERED'24
25 26 27 60 63 64 67 68 69 70 109  0
c 'COVERED'25
26 27 28 63 64 67 68 71 72 113  0
c 'COVERED'26
28 67 68 73  0
c 'COVERED'27
2 31 34 74 75 76  0
c 'COVERED'28
4 5 30 31 34 35 38 74 75 77 78 79 80 120  0
c 'COVERED'29
7 8 33 35 38 39 42 74 75 77 78 81 82 83 84 123  0
c 'COVERED'30
10 11 37 39 42 43 46 77 78 81 82 85 86 87 88 127  0
c 'COVERED'31
13 14 41 43 46 47 50 81 82 85 86 89 90 91 92 131  0
c 'COVERED'32
16 17 45 47 50 51 54 85 86 89 90 93 94 95 96 135  0
c 'COVERED'33
19 20 49 51 54 55 58 89 90 93 94 97 98 99 100 139  0
c 'COVERED'34
21 22 53 55 58 59 61 93 94 97 98 101 102 103 104 143  0
c 'COVERED'35
23 24 57 59 61 62 65 97 98 101 102 105 106 107 108 147  0
c 'COVERED'36
60 62 65 66 69 101 102 105 106 109 110 111 112 151  0
c 'COVERED'37
25 26 64 66 69 70 71 105 106 109 110 113 114 115 116 155  0
c 'COVERED'38
27 28 68 70 71 72 73 109 110 113 114 117 118 159  0
c 'COVERED'39
72 73 113 114 119  0
c 'COVERED'40
31 76 79 120 121 122  0
c 'COVERED'41
34 35 75 76 79 80 83 120 121 123 124 125 126 166  0
c 'COVERED'42
38 39 78 80 83 84 87 120 121 123 124 127 128 129 130 169  0
c 'COVERED'43
42 43 82 84 87 88 91 123 124 127 128 131 132 133 134 173  0
c 'COVERED'44
46 47 86 88 91 92 95 127 128 131 132 135 136 137 138 177  0
c 'COVERED'45
50 51 90 92 95 96 99 131 132 135 136 139 140 141 142 181  0
c 'COVERED'46
54 55 94 96 99 100 103 135 136 139 140 143 144 145 146 185  0
c 'COVERED'47
58 59 98 100 103 104 107 139 140 143 144 147 148 149 150 189  0
c 'COVERED'48
61 62 102 104 107 108 111 143 144 147 148 151 152 153 154 193  0
c 'COVERED'49
65 66 106 108 111 112 115 147 148 151 152 155 156 157 158 197  0
c 'COVERED'50
69 70 110 112 115 116 117 151 152 155 156 159 160 161 162 201  0
c 'COVERED'51
71 72 114 116 117 118 119 155 156 159 160 163 164 205  0
c 'COVERED'52
73 118 119 159 160 165  0
c 'COVERED'53
76 122 125 166 167 168  0
c 'COVERED'54
79 80 121 122 125 126 129 166 167 169 170 171 172 212  0
c 'COVERED'55
83 84 124 126 129 130 133 166 167 169 170 173 174 175 176 215  0
c 'COVERED'56
87 88 128 130 133 134 137 169 170 173 174 177 178 179 180 219  0
c 'COVERED'57
91 92 132 134 137 138 141 173 174 177 178 181 182 183 184 223  0
c 'COVERED'58
95 96 136 138 141 142 145 177 178 181 182 185 186 187 188 227  0
c 'COVERED'59
99 100 140 142 145 146 149 181 182 185 186 189 190 191 192 231  0
c 'COVERED'60
103 104 144 146 149 150 153 185 186 189 190 193 194 195 196 235  0
c 'COVERED'61
107 108 148 150 153 154 157 189 190 193 194 197 198 199 200 239  0
c 'COVERED'62
111 112 152 154 157 158 161 193 194 197 198 201 202 203 204 243  0
c 'COVERED'63
115 116 156 158 161 162 163 197 198 201 202 205 206 207 208 247  0
c 'COVERED'64
117 118 160 162 163 164 165 201 202 205 206 209 210 251  0
c 'COVERED'65
119 164 165 205 206 211  0
c 'COVERED'66
122 168 171 212 213 214  0
c 'COVERED'67
125 126 167 168 171 172 175 212 213 215 216 217 218 258  0
c 'COVERED'68
129 130 170 172 175 176 179 212 213 215 216 219 220 221 222 261  0
c 'COVERED'69
133 134 174 176 179 180 183 215 216 219 220 223 224 225 226 265  0
c 'COVERED'70
137 138 178 180 183 184 187 219 220 223 224 227 228 229 230 269  0
c 'COVERED'71
141 142 182 184 187 188 191 223 224 227 228 231 232 233 234 273  0
c 'COVERED'72
145 146 186 188 191 192 195 227 228 231 232 235 236 237 238 275  0
c 'COVERED'73
149 150 190 192 195 196 199 231 232 235 236 239 240 241 242 279  0
c 'COVERED'74
153 154 194 196 199 200 203 235 236 239 240 243 244 245 246 283  0
c 'COVERED'75
157 158 198 200 203 204 207 239 240 243 244 247 248 249 250 287  0
c 'COVERED'76
161 162 202 204 207 208 209 243 244 247 248 251 252 253 254 291  0
c 'COVERED'77
163 164 206 208 209 210 211 247 248 251 252 255 256 295  0
c 'COVERED'78
165 210 211 251 252 257  0
c 'COVERED'79
168 214 217 258 259 260  0
c 'COVERED'80
171 172 213 214 217 218 221 258 259 261 262 263 264 302  0
c 'COVERED'81
175 176 216 218 221 222 225 258 259 261 262 265 266 267 268 304  0
c 'COVERED'82
179 180 220 222 225 226 229 261 262 265 266 269 270 271 272 306  0
c 'COVERED'83
183 184 224 226 229 230 233 265 266 269 270 273 274 308  0
c 'COVERED'84
187 188 228 230 233 234 237 269 270 273 274 275 276 277 278 309  0
c 'COVERED'85
191 192 232 234 237 238 241 273 274 275 276 279 280 281 282 311  0
c 'COVERED'86
195 196 236 238 241 242 245 275 276 279 280 283 284 285 286 313  0
c 'COVERED'87
199 200 240 242 245 246 249 279 280 283 284 287 288 289 290 315  0
c 'COVERED'88
203 204 244 246 249 250 253 283 284 287 288 291 292 293 294 317  0
c 'COVERED'89
207 208 248 250 253 254 255 287 288 291 292 295 296 297 298 319  0
c 'COVERED'90
209 210 252 254 255 256 257 291 292 295 296 299 300 321  0
c 'COVERED'91
211 256 257 295 296 301  0
c 'COVERED'92
214 260 263 302 303  0
c 'COVERED'93
217 218 259 260 263 264 267 302 303 304 305 323  0
c 'COVERED'94
221 222 262 264 267 268 271 302 303 304 305 306 307 324  0
c 'COVERED'95
225 226 266 268 271 272 304 305 306 307 308  0
c 'COVERED'96
229 230 270 272 277 306 307 308 309 310  0
c 'COVERED'97
233 234 274 277 278 281 308 309 310 311 312  0
c 'COVERED'98
237 238 276 278 281 282 285 309 310 311 312 313 314 325  0
c 'COVERED'99
241 242 280 282 285 286 289 311 312 313 314 315 316 326  0
c 'COVERED'100
245 246 284 286 289 290 293 313 314 315 316 317 318 327  0
c 'COVERED'101
249 250 288 290 293 294 297 315 316 317 318 319 320 328  0
c 'COVERED'102
253 254 292 294 297 298 299 317 318 319 320 321 322 329  0
c 'COVERED'103
255 256 296 298 299 300 301 319 320 321 322 330  0
c 'COVERED'104
257 300 301 321 322  0
c 'COVERED'105
260 323  0
c 'COVERED'106
263 264 303 323 324  0
c 'COVERED'107
267 268 305 323 324  0
c 'COVERED'108
271 272 307 324  0
c 'COVERED'110
277 278 310 325  0
c 'COVERED'111
281 282 312 325 326  0
c 'COVERED'112
285 286 314 325 326 327  0
c 'COVERED'113
289 290 316 326 327 328  0
c 'COVERED'114
293 294 318 327 328 329  0
c 'COVERED'115
297 298 320 328 329 330  0
c 'COVERED'116
299 300 322 329 330  0
c 'COVERED'117
301 330  0
-1 -2 0
-1 -3 0
-1 -4 0
-1 -5 0
-1 -29 0
-3 -4 0
-3 -5 0
-3 -29 0
-4 -5 0
-4 -29 0
-5 -29 0
-1 -3 0
-1 -6 0
-1 -7 0
-1 -8 0
-1 -32 0
-3 -6 0
-3 -7 0
-3 -8 0
-3 -32 0
-6 -7 0
-6 -8 0
-6 -32 0
-7 -8 0
-7 -32 0
-8 -32 0
-3 -6 0
-3 -9 0
-3 -10 0
-3 -11 0
-3 -36 0
-6 -9 0
-6 -10 0
-6 -11 0
-6 -36 0
-9 -10 0
-9 -11 0
-9 -36 0
-10 -11 0
-10 -36 0
-11 -36 0
-6 -9 0
-6 -12 0
-6 -13 0
-6 -14 0
-6 -40 0
-9 -12 0
-9 -13 0
-9 -14 0
-9 -40 0
-12 -13 0
-12 -14 0
-12 -40 0
-13 -14 0
-13 -40 0
-14 -40 0
-9 -12 0
-9 -15 0
-9 -16 0
-9 -17 0
-9 -44 0
-12 -15 0
-12 -16 0
-12 -17 0
-12 -44 0
-15 -16 0
-15 -17 0
-15 -44 0
-16 -17 0
-16 -44 0
-17 -44 0
-12 -15 0
-12 -18 0
-12 -19 0
-12 -20 0
-12 -48 0
-15 -18 0
-15 -19 0
-15 -20 0
-15 -48 0
-18 -19 0
-18 -20 0
-18 -48 0
-19 -20 0
-19 -48 0
-20 -48 0
-15 -18 0
-15 -21 0
-15 -22 0
-15 -52 0
-18 -21 0
-18 -22 0
-18 -52 0
-21 -22 0
-21 -52 0
-22 -52 0
-18 -23 0
-18 -24 0
-18 -56 0
-23 -24 0
-23 -56 0
-24 -56 0
-25 -26 0
-25 -63 0
-26 -63 0
-27 -28 0
-27 -67 0
-28 -67 0
-2 -4 0
-2 -29 0
-2 -30 0
-2 -31 0
-4 -29 0
-4 -30 0
-4 -31 0
-29 -30 0
-29 -31 0
-30 -31 0
-1 -2 0
-1 -4 0
-1 -5 0
-1 -7 0
-1 -29 0
-1 -30 0
-1 -32 0
-1 -33 0
-1 -34 0
-1 -35 0
-1 -74 0
-2 -4 0
-2 -5 0
-2 -7 0
-2 -29 0
-2 -30 0
-2 -32 0
-2 -33 0
-2 -34 0
-2 -35 0
-2 -74 0
-4 -5 0
-4 -7 0
-4 -29 0
-4 -30 0
-4 -32 0
-4 -33 0
-4 -34 0
-4 -35 0
-4 -74 0
-5 -7 0
-5 -29 0
-5 -30 0
-5 -32 0
-5 -33 0
-5 -34 0
-5 -35 0
-5 -74 0
-7 -29 0
-7 -30 0
-7 -32 0
-7 -33 0
-7 -34 0
-7 -35 0
-7 -74 0
-29 -30 0
-29 -32 0
-29 -33 0
-29 -34 0
-29 -35 0
-29 -74 0
-30 -32 0
-30 -33 0
-30 -34 0
-30 -35 0
-30 -74 0
-32 -33 0
-32 -34 0
-32 -35 0
-32 -74 0
-33 -34 0
-33 -35 0
-33 -74 0
-34 -35 0
-34 -74 0
-35 -74 0
-3 -5 0
-3 -7 0
-3 -8 0
-3 -10 0
-3 -29 0
-3 -30 0
-3 -32 0
-3 -33 0
-3 -36 0
-3 -37 0
-3 -38 0
-3 -39 0
-3 -77 0
-5 -7 0
-5 -8 0
-5 -10 0
-5 -29 0
-5 -30 0
-5 -32 0
-5 -33 0
-5 -36 0
-5 -37 0
-5 -38 0
-5 -39 0
-5 -77 0
-7 -8 0
-7 -10 0
-7 -29 0
-7 -30 0
-7 -32 0
-7 -33 0
-7 -36 0
-7 -37 0
-7 -38 0
-7 -39 0
-7 -77 0
-8 -10 0
-8 -29 0
-8 -30 0
-8 -32 0
-8 -33 0
-8 -36 0
-8 -37 0
-8 -38 0
-8 -39 0
-8 -77 0
-10 -29 0
-10 -30 0
